data/solutions/recovery/degenerate/intermediate/flexible/degenerate_intermediate_instance23/50.sol
Elapsed time: 100.15
Upper bound: 227840576.0
Planning weighted value: 8.779656171e+11
C[0]=227840576.0
C[1]=227773609.0
C[2]=227305623.0
C[3]=227197826.0
C[4]=226656624.0
C[5]=225979687.0
C[6]=225683149.0
C[7]=225562576.0
C[8]=225254984.0
C[9]=221707537.0
C[10]=221443709.0
C[11]=0.0
y[0]=2
y[1]=0
y[2]=1
y[3]=6
y[4]=9
y[5]=4
y[6]=0
y[7]=1
y[8]=7
y[9]=9
y[10]=5
y[11]=8
y[12]=6
y[13]=9
y[14]=10
y[15]=3
y[16]=2
y[17]=10
y[18]=1
y[19]=2
y[20]=10
y[21]=3
y[22]=7
y[23]=5
y[24]=8
y[25]=10
y[26]=1
y[27]=6
y[28]=5
y[29]=10
y[30]=0
y[31]=6
y[32]=6
y[33]=3
y[34]=5
y[35]=0
y[36]=0
y[37]=2
y[38]=9
y[39]=0
y[40]=4
y[41]=4
y[42]=7
y[43]=3
y[44]=4
y[45]=2
y[46]=8
y[47]=9
y[48]=6
y[49]=0
y[50]=0
y[51]=8
y[52]=1
y[53]=7
y[54]=1
y[55]=2
y[56]=7
y[57]=5
y[58]=9
y[59]=8
y[60]=2
y[61]=10
y[62]=4
y[63]=6
y[64]=8
y[65]=5
y[66]=3
y[67]=2
y[68]=7
y[69]=4
y[70]=9
y[71]=9
y[72]=7
y[73]=5
y[74]=4
y[75]=9
y[76]=0
y[77]=3
