data/solutions/recovery/degenerate/intermediate/flexible/degenerate_intermediate_instance23/50.log

Log started (V12.6.3.0) Sat Apr 21 15:52:16 2018

New value for default parallel thread count: 1

Problem '/tmp/tmpaYwI9a.pyomo.lp' read.
Read time = 0.01 sec. (0.86 ticks)

Problem name         : /tmp/tmpaYwI9a.pyomo.lp
Objective sense      : Minimize
Variables            :     950  [Nneg: 1,  Binary: 936,  General Integer: 13]
Objective nonzeros   :       1
Linear constraints   :     182  [Less: 90,  Equal: 92]
  Nonzeros           :   61975
  RHS nonzeros       :     157

Variables            : Min LB: 0.000000         Max UB: 1.000000       
Objective nonzeros   : Min   : 1.000000         Max   : 1.000000       
Linear constraints   :
  Nonzeros           : Min   : 1.000000         Max   : 6.145599e+07   
  RHS nonzeros       : Min   : 1.000000         Max   : 8.000000       
Tried aggregator 2 times.
MIP Presolve eliminated 82 rows and 141 columns.
Aggregator did 5 substitutions.
Reduced MIP has 95 rows, 804 columns, and 2267 nonzeros.
Reduced MIP has 792 binaries, 12 generals, 0 SOSs, and 0 indicators.
Presolve time = 0.01 sec. (11.18 ticks)
Found incumbent of value 7.6862531e+08 after 0.01 sec. (12.74 ticks)
Probing time = 0.00 sec. (1.60 ticks)
Tried aggregator 1 time.
Reduced MIP has 95 rows, 804 columns, and 2267 nonzeros.
Reduced MIP has 792 binaries, 12 generals, 0 SOSs, and 0 indicators.
Presolve time = 0.00 sec. (1.15 ticks)
Probing time = 0.00 sec. (1.59 ticks)
Clique table members: 72.
MIP emphasis: balance optimality and feasibility.
MIP search method: dynamic search.
Parallel mode: none, using 1 thread.
Root relaxation solution time = 0.00 sec. (1.43 ticks)

        Nodes                                         Cuts/
   Node  Left     Objective  IInf  Best Integer    Best Bound    ItCnt     Gap

*     0+    0                       7.68625e+08        0.0000           100.00%
      0     0   2.25673e+08    26   7.68625e+08   2.25673e+08      132   70.64%
      0     0   2.25673e+08    21   7.68625e+08      Fract: 3      145   70.64%
      0     0   2.25673e+08    29   7.68625e+08      Fract: 6      161   70.64%
*     0+    0                       2.86706e+08   2.25673e+08            21.29%
*     0+    0                       2.68347e+08   2.25673e+08            15.90%
*     0+    0                       2.38567e+08   2.25673e+08             5.40%
*     0+    0                       2.37615e+08   2.25673e+08             5.03%
      0     2   2.25673e+08    15   2.37615e+08   2.25673e+08      161    5.03%
Elapsed time = 0.05 sec. (54.61 ticks, tree = 0.01 MB, solutions = 5)
*    30+   30                       2.34833e+08   2.25673e+08             3.90%
*   150+  125                       2.34540e+08   2.25673e+08             3.78%
*   296+  259                       2.32864e+08   2.25673e+08             3.09%
*   498+  437                       2.32086e+08   2.25673e+08             2.76%
*   499+  437                       2.31953e+08   2.25673e+08             2.71%
*   499+  359                       2.31945e+08   2.25673e+08             2.70%
    501   363   2.25673e+08    22   2.31945e+08   2.25673e+08     2449    2.70%
    502   363   2.25673e+08    20   2.31945e+08   2.25673e+08     2454    2.70%
    503   364   2.25673e+08    21   2.31945e+08   2.25673e+08     2460    2.70%
    504   364   2.25673e+08    21   2.31945e+08   2.25673e+08     2464    2.70%
    505   365   2.25673e+08    20   2.31945e+08   2.25673e+08     2470    2.70%
    506   366   2.25673e+08    20   2.31945e+08   2.25673e+08     2475    2.70%
    507   367   2.25673e+08    18   2.31945e+08   2.25673e+08     2477    2.70%
    508   367   2.25673e+08    20   2.31945e+08   2.25673e+08     2485    2.70%
    509   368   2.25673e+08    19   2.31945e+08   2.25673e+08     2488    2.70%
*   601+  282                       2.31311e+08   2.25673e+08             2.44%
*   601+  214                       2.31277e+08   2.25673e+08             2.42%
*   901+  237                       2.30420e+08   2.25673e+08             2.06%
*  1101+  366                       2.30010e+08   2.25673e+08             1.89%
   1101   368   2.25673e+08    19   2.30010e+08   2.25673e+08     4594    1.89%
Elapsed time = 0.88 sec. (1038.65 ticks, tree = 0.21 MB, solutions = 15)
*  1501+  569                       2.29609e+08   2.25673e+08             1.71%
   3212  1913   2.25673e+08    18   2.29609e+08   2.25673e+08     9714    1.71%
   3213  1914   2.25673e+08    17   2.29609e+08   2.25673e+08     9717    1.71%
   3214  1915   2.25673e+08    19   2.29609e+08   2.25673e+08     9725    1.71%
   3215  1916   2.25673e+08    18   2.29609e+08   2.25673e+08     9731    1.71%
   3216  1917   2.25673e+08    18   2.29609e+08   2.25673e+08     9733    1.71%
   3217  1918   2.26577e+08    16   2.29609e+08   2.25673e+08     9736    1.71%
   3218  1919   2.26675e+08    24   2.29609e+08   2.25673e+08     9744    1.71%
   3219  1919   2.26675e+08    25   2.29609e+08   2.25673e+08     9745    1.71%
   3220  1919   2.26675e+08    24   2.29609e+08   2.25673e+08     9746    1.71%
   3221  1920   2.26675e+08    25   2.29609e+08   2.25673e+08     9747    1.71%
Elapsed time = 1.63 sec. (1994.12 ticks, tree = 1.21 MB, solutions = 16)
   7144  4938        cutoff         2.29609e+08   2.25673e+08    26337    1.71%
   7145  4939   2.25673e+08    25   2.29609e+08   2.25673e+08    26353    1.71%
   7146  4940   2.25673e+08    23   2.29609e+08   2.25673e+08    26361    1.71%
   7147  4941   2.25673e+08    24   2.29609e+08   2.25673e+08    26363    1.71%
   7148  4942   2.25673e+08    26   2.29609e+08   2.25673e+08    26367    1.71%
   7149  4941    infeasible         2.29609e+08   2.25673e+08    26367    1.71%
   7150  4942   2.25956e+08    38   2.29609e+08   2.25673e+08    26414    1.71%
   7151  4943   2.26091e+08    35   2.29609e+08   2.25673e+08    26421    1.71%
   7152  4944   2.26091e+08    33   2.29609e+08   2.25673e+08    26424    1.71%
   7153  4945   2.26726e+08    33   2.29609e+08   2.25673e+08    26438    1.71%
Elapsed time = 2.36 sec. (2952.11 ticks, tree = 3.21 MB, solutions = 16)
   9644  6600        cutoff         2.29609e+08   2.25673e+08    52949    1.71%
   9645  6600   2.26156e+08    48   2.29609e+08   2.25673e+08    53069    1.71%
   9646  6601   2.26158e+08    46   2.29609e+08   2.25673e+08    53082    1.71%
   9647  6602   2.26248e+08    39   2.29609e+08   2.25673e+08    53096    1.71%
   9648  6601        cutoff         2.29609e+08   2.25673e+08    53105    1.71%
   9649  6601   2.26248e+08    40   2.29609e+08   2.25673e+08    53113    1.71%
   9650  6600   2.26431e+08    39   2.29609e+08   2.25673e+08    53118    1.71%
   9651  6601   2.25673e+08    32   2.29609e+08   2.25673e+08    53159    1.71%
   9652  6602   2.25673e+08    25   2.29609e+08   2.25673e+08    53167    1.71%
   9653  6603   2.25673e+08    23   2.29609e+08   2.25673e+08    53173    1.71%
Elapsed time = 3.09 sec. (3914.80 ticks, tree = 4.20 MB, solutions = 16)
  10461  7114   2.27573e+08    31   2.29609e+08   2.25673e+08    67810    1.71%
  10462  7113        cutoff         2.29609e+08   2.25673e+08    67846    1.71%
  10463  7112    infeasible         2.29609e+08   2.25673e+08    67966    1.71%
  10464  7111        cutoff         2.29609e+08   2.25673e+08    68062    1.71%
  10465  7112   2.25673e+08    28   2.29609e+08   2.25673e+08    68089    1.71%
  10466  7113   2.25673e+08    31   2.29609e+08   2.25673e+08    68094    1.71%
  10467  7114   2.25673e+08    30   2.29609e+08   2.25673e+08    68098    1.71%
  10468  7115   2.25673e+08    29   2.29609e+08   2.25673e+08    68128    1.71%
  10469  7116   2.25673e+08    26   2.29609e+08   2.25673e+08    68132    1.71%
  10470  7117   2.25673e+08    24   2.29609e+08   2.25673e+08    68133    1.71%
Elapsed time = 4.15 sec. (4890.26 ticks, tree = 4.53 MB, solutions = 16)
  12257  8303   2.25673e+08    21   2.29609e+08   2.25673e+08    92346    1.71%
  12258  8303   2.26345e+08    28   2.29609e+08   2.25673e+08    92371    1.71%
  12259  8304   2.26345e+08    28   2.29609e+08   2.25673e+08    92372    1.71%
  12260  8305   2.26375e+08    28   2.29609e+08   2.25673e+08    92376    1.71%
  12261  8306   2.26378e+08    29   2.29609e+08   2.25673e+08    92378    1.71%
  12262  8307   2.26378e+08    28   2.29609e+08   2.25673e+08    92380    1.71%
  12263  8307   2.26378e+08    29   2.29609e+08   2.25673e+08    92384    1.71%
  12264  8308   2.26378e+08    27   2.29609e+08   2.25673e+08    92385    1.71%
  12265  8309   2.26378e+08    27   2.29609e+08   2.25673e+08    92387    1.71%
  12266  8310   2.26378e+08    27   2.29609e+08   2.25673e+08    92388    1.71%
Elapsed time = 5.00 sec. (5848.86 ticks, tree = 5.48 MB, solutions = 16)
  14736 10363   2.25673e+08    30   2.29609e+08   2.25673e+08   117988    1.71%
  14737 10364   2.25673e+08    22   2.29609e+08   2.25673e+08   117995    1.71%
  14738 10365   2.25673e+08    20   2.29609e+08   2.25673e+08   117998    1.71%
  14739 10366   2.25673e+08    25   2.29609e+08   2.25673e+08   118028    1.71%
  14740 10367   2.25673e+08    20   2.29609e+08   2.25673e+08   118034    1.71%
  14741 10368   2.25673e+08    25   2.29609e+08   2.25673e+08   118049    1.71%
  14742 10369   2.25673e+08    23   2.29609e+08   2.25673e+08   118061    1.71%
  14743 10370   2.25673e+08    22   2.29609e+08   2.25673e+08   118090    1.71%
  14744 10371   2.25673e+08    21   2.29609e+08   2.25673e+08   118092    1.71%
  14745 10372   2.25673e+08    21   2.29609e+08   2.25673e+08   118094    1.71%
Elapsed time = 5.71 sec. (6811.64 ticks, tree = 6.78 MB, solutions = 16)
  16644 11926   2.29541e+08    20   2.29609e+08   2.25673e+08   141362    1.71%
  16645 11927   2.29541e+08    21   2.29609e+08   2.25673e+08   141363    1.71%
  16646 11926        cutoff         2.29609e+08   2.25673e+08   141400    1.71%
  16647 11927   2.29541e+08    17   2.29609e+08   2.25673e+08   141405    1.71%
  16648 11928   2.29541e+08    18   2.29609e+08   2.25673e+08   141408    1.71%
  16649 11929   2.29541e+08    14   2.29609e+08   2.25673e+08   141432    1.71%
  16650 11930   2.29541e+08    14   2.29609e+08   2.25673e+08   141435    1.71%
  16651 11931   2.29541e+08    15   2.29609e+08   2.25673e+08   141439    1.71%
  16652 11930        cutoff         2.29609e+08   2.25673e+08   141443    1.71%
  16653 11929        cutoff         2.29609e+08   2.25673e+08   141467    1.71%
Elapsed time = 6.39 sec. (7769.33 ticks, tree = 7.73 MB, solutions = 16)
  18496 13439   2.25673e+08    27   2.29609e+08   2.25673e+08   167274    1.71%
  18497 13440   2.25673e+08    25   2.29609e+08   2.25673e+08   167294    1.71%
  18498 13441   2.25673e+08    29   2.29609e+08   2.25673e+08   167301    1.71%
  18499 13442   2.25673e+08    27   2.29609e+08   2.25673e+08   167316    1.71%
  18500 13443   2.25673e+08    26   2.29609e+08   2.25673e+08   167327    1.71%
  18501 13444   2.25673e+08    26   2.29609e+08   2.25673e+08   167348    1.71%
  18502 13445   2.25673e+08    25   2.29609e+08   2.25673e+08   167356    1.71%
  18503 13446   2.25673e+08    23   2.29609e+08   2.25673e+08   167360    1.71%
  18504 13447   2.25673e+08    26   2.29609e+08   2.25673e+08   167433    1.71%
  18505 13448   2.25673e+08    20   2.29609e+08   2.25673e+08   167452    1.71%
Elapsed time = 7.11 sec. (8730.32 ticks, tree = 8.71 MB, solutions = 16)
  19305 13908        cutoff         2.29609e+08   2.25673e+08   192517    1.71%
  19306 13909   2.25673e+08    36   2.29609e+08   2.25673e+08   192524    1.71%
  19307 13910   2.25673e+08    35   2.29609e+08   2.25673e+08   192525    1.71%
  19308 13911   2.25673e+08    34   2.29609e+08   2.25673e+08   192557    1.71%
  19309 13912   2.25673e+08    29   2.29609e+08   2.25673e+08   192567    1.71%
  19310 13913   2.25673e+08    34   2.29609e+08   2.25673e+08   192578    1.71%
  19311 13913   2.25673e+08    38   2.29609e+08   2.25673e+08   192593    1.71%
  19312 13912        cutoff         2.29609e+08   2.25673e+08   192786    1.71%
  19313 13911        cutoff         2.29609e+08   2.25673e+08   192818    1.71%
  21430 15250   2.25673e+08    35   2.29609e+08   2.25673e+08   260889    1.71%
Elapsed time = 9.88 sec. (12549.16 ticks, tree = 9.83 MB, solutions = 16)
  24851 17835   2.28298e+08    23   2.29609e+08   2.25673e+08   346089    1.71%
  24852 17836   2.28298e+08    23   2.29609e+08   2.25673e+08   346105    1.71%
  24853 17837   2.28298e+08    22   2.29609e+08   2.25673e+08   346106    1.71%
  24854 17838   2.28298e+08    23   2.29609e+08   2.25673e+08   346122    1.71%
  24855 17839   2.28298e+08    24   2.29609e+08   2.25673e+08   346156    1.71%
  24856 17840   2.28298e+08    26   2.29609e+08   2.25673e+08   346161    1.71%
  24857 17841   2.28298e+08    24   2.29609e+08   2.25673e+08   346162    1.71%
  24858 17842   2.28298e+08    18   2.29609e+08   2.25673e+08   346255    1.71%
  24859 17843   2.28298e+08    22   2.29609e+08   2.25673e+08   346257    1.71%
  24860 17844   2.28298e+08    22   2.29609e+08   2.25673e+08   346260    1.71%
Elapsed time = 12.54 sec. (16368.46 ticks, tree = 11.92 MB, solutions = 16)
  27212 19179        cutoff         2.29609e+08   2.25673e+08   422880    1.71%
  27213 19178        cutoff         2.29609e+08   2.25673e+08   422900    1.71%
  27214 19177    infeasible         2.29609e+08   2.25673e+08   423182    1.71%
  27215 19178   2.27879e+08    39   2.29609e+08   2.25673e+08   423513    1.71%
  27216 19177        cutoff         2.29609e+08   2.25673e+08   423545    1.71%
  27217 19176        cutoff         2.29609e+08   2.25673e+08   423553    1.71%
  27218 19175        cutoff         2.29609e+08   2.25673e+08   423753    1.71%
  27219 19176   2.25673e+08    73   2.29609e+08   2.25673e+08   423991    1.71%
  27220 19177   2.25673e+08    71   2.29609e+08   2.25673e+08   423999    1.71%
  27221 19178   2.25673e+08    67   2.29609e+08   2.25673e+08   424009    1.71%
Elapsed time = 15.80 sec. (20228.58 ticks, tree = 12.79 MB, solutions = 16)
  30567 21956   2.25673e+08    65   2.29609e+08   2.25673e+08   499551    1.71%
  30568 21957   2.25673e+08    59   2.29609e+08   2.25673e+08   499557    1.71%
  30569 21958   2.25673e+08    56   2.29609e+08   2.25673e+08   499566    1.71%
  30570 21959   2.25673e+08    54   2.29609e+08   2.25673e+08   499567    1.71%
  30571 21960   2.25673e+08    49   2.29609e+08   2.25673e+08   499583    1.71%
  30572 21961   2.25673e+08    45   2.29609e+08   2.25673e+08   499605    1.71%
  30573 21962   2.25673e+08    39   2.29609e+08   2.25673e+08   499640    1.71%
  30574 21963   2.25673e+08    40   2.29609e+08   2.25673e+08   499652    1.71%
  30575 21964   2.25673e+08    50   2.29609e+08   2.25673e+08   499769    1.71%
  30576 21965   2.25673e+08    48   2.29609e+08   2.25673e+08   499777    1.71%
Elapsed time = 19.33 sec. (24066.47 ticks, tree = 14.53 MB, solutions = 16)
  33425 24146   2.25673e+08    42   2.29609e+08   2.25673e+08   581026    1.71%
  33426 24147   2.25752e+08    38   2.29609e+08   2.25673e+08   581073    1.71%
  33427 24148   2.25766e+08    35   2.29609e+08   2.25673e+08   581084    1.71%
  33428 24149   2.25766e+08    36   2.29609e+08   2.25673e+08   581086    1.71%
  33429 24150   2.25770e+08    32   2.29609e+08   2.25673e+08   581093    1.71%
  33430 24151   2.25770e+08    31   2.29609e+08   2.25673e+08   581095    1.71%
  33431 24152   2.25770e+08    31   2.29609e+08   2.25673e+08   581096    1.71%
  33432 24153   2.25770e+08    31   2.29609e+08   2.25673e+08   581097    1.71%
  33433 24154   2.25772e+08    31   2.29609e+08   2.25673e+08   581100    1.71%
  33434 24155   2.25781e+08    33   2.29609e+08   2.25673e+08   581106    1.71%
Elapsed time = 22.98 sec. (27886.05 ticks, tree = 16.00 MB, solutions = 16)
* 33801+22765                       2.28405e+08   2.25673e+08             1.20%
  36301 24596   2.25673e+08    29   2.28405e+08   2.25673e+08   655765    1.20%
  36302 24597   2.25673e+08    25   2.28405e+08   2.25673e+08   655768    1.20%
  36303 24598   2.25673e+08    28   2.28405e+08   2.25673e+08   655801    1.20%
  36304 24599   2.25673e+08    28   2.28405e+08   2.25673e+08   655819    1.20%
  36305 24600   2.25673e+08    26   2.28405e+08   2.25673e+08   655823    1.20%
  36306 24601   2.25938e+08    29   2.28405e+08   2.25673e+08   656156    1.20%
  36307 24602   2.25938e+08    28   2.28405e+08   2.25673e+08   656159    1.20%
  36308 24603   2.25938e+08    28   2.28405e+08   2.25673e+08   656166    1.20%
  36309 24604   2.25938e+08    27   2.28405e+08   2.25673e+08   656169    1.20%
  36310 24605   2.25950e+08    29   2.28405e+08   2.25673e+08   656186    1.20%
Elapsed time = 26.76 sec. (31760.28 ticks, tree = 16.33 MB, solutions = 17)
  39741 27445   2.25673e+08    59   2.28405e+08   2.25673e+08   733796    1.20%
  39742 27446   2.25673e+08    55   2.28405e+08   2.25673e+08   733797    1.20%
  39743 27447   2.25673e+08    54   2.28405e+08   2.25673e+08   733799    1.20%
  39744 27448   2.25673e+08    56   2.28405e+08   2.25673e+08   733806    1.20%
  39745 27449   2.25673e+08    52   2.28405e+08   2.25673e+08   733825    1.20%
  39746 27450   2.25673e+08    52   2.28405e+08   2.25673e+08   733844    1.20%
  39747 27451   2.25673e+08    37   2.28405e+08   2.25673e+08   733955    1.20%
  39748 27452   2.25673e+08    33   2.28405e+08   2.25673e+08   733999    1.20%
  39749 27453   2.25673e+08    38   2.28405e+08   2.25673e+08   734037    1.20%
  39750 27454   2.25673e+08    40   2.28405e+08   2.25673e+08   734039    1.20%
Elapsed time = 30.36 sec. (35587.25 ticks, tree = 18.16 MB, solutions = 17)
* 41301+27774                       2.28042e+08   2.25673e+08             1.04%
  44392 30448   2.26931e+08    32   2.28042e+08   2.25673e+08   803213    1.04%
  44393 30449   2.26931e+08    32   2.28042e+08   2.25673e+08   803214    1.04%
  44394 30450   2.26931e+08    29   2.28042e+08   2.25673e+08   803215    1.04%
  44395 30451   2.26931e+08    33   2.28042e+08   2.25673e+08   803218    1.04%
  44396 30452   2.26931e+08    29   2.28042e+08   2.25673e+08   803222    1.04%
  44397 30453   2.26931e+08    28   2.28042e+08   2.25673e+08   803225    1.04%
  44398 30454   2.26931e+08    28   2.28042e+08   2.25673e+08   803230    1.04%
  44399 30455   2.26931e+08    28   2.28042e+08   2.25673e+08   803231    1.04%
  44400 30456   2.26931e+08    26   2.28042e+08   2.25673e+08   803232    1.04%
  44401 30457   2.26931e+08    27   2.28042e+08   2.25673e+08   803234    1.04%
Elapsed time = 33.76 sec. (39405.08 ticks, tree = 20.16 MB, solutions = 18)
* 50601+34415                       2.27841e+08   2.25673e+08             0.95%
  50879 34642        cutoff         2.27841e+08   2.25673e+08   878528    0.95%
  50880 34641        cutoff         2.27841e+08   2.25673e+08   878595    0.95%
  50881 34642   2.25673e+08    21   2.27841e+08   2.25673e+08   878619    0.95%
  50882 34643   2.25673e+08    24   2.27841e+08   2.25673e+08   878628    0.95%
  50883 34644   2.25673e+08    23   2.27841e+08   2.25673e+08   878634    0.95%
  50884 34645   2.25673e+08    24   2.27841e+08   2.25673e+08   878652    0.95%
  50885 34646   2.25673e+08    24   2.27841e+08   2.25673e+08   878661    0.95%
  50886 34647   2.25673e+08    25   2.27841e+08   2.25673e+08   878664    0.95%
  50887 34648   2.25673e+08    26   2.27841e+08   2.25673e+08   878669    0.95%
  50888 34649   2.25673e+08    25   2.27841e+08   2.25673e+08   878672    0.95%
Elapsed time = 37.14 sec. (43225.58 ticks, tree = 23.98 MB, solutions = 19)
  56137 38633   2.25673e+08    21   2.27841e+08   2.25673e+08   951225    0.95%
  56138 38634   2.25673e+08    21   2.27841e+08   2.25673e+08   951226    0.95%
  56139 38635   2.25673e+08    21   2.27841e+08   2.25673e+08   951227    0.95%
  56140 38636   2.25673e+08    23   2.27841e+08   2.25673e+08   951230    0.95%
  56141 38637   2.25682e+08    34   2.27841e+08   2.25673e+08   951379    0.95%
  56142 38638   2.25706e+08    31   2.27841e+08   2.25673e+08   951496    0.95%
  56143 38639   2.25706e+08    30   2.27841e+08   2.25673e+08   951508    0.95%
  56144 38640   2.25726e+08    31   2.27841e+08   2.25673e+08   951528    0.95%
  56145 38641   2.25726e+08    31   2.27841e+08   2.25673e+08   951533    0.95%
  56146 38642   2.25791e+08    30   2.27841e+08   2.25673e+08   951546    0.95%
Elapsed time = 40.55 sec. (47051.17 ticks, tree = 26.74 MB, solutions = 19)
  62771 43805   2.25956e+08    28   2.27841e+08   2.25673e+08  1031704    0.95%
  62772 43806   2.25957e+08    28   2.27841e+08   2.25673e+08  1031709    0.95%
  62773 43807   2.25957e+08    29   2.27841e+08   2.25673e+08  1031710    0.95%
  62774 43807   2.25957e+08    27   2.27841e+08   2.25673e+08  1031716    0.95%
  62775 43807   2.26096e+08    28   2.27841e+08   2.25673e+08  1031724    0.95%
  62776 43807   2.26788e+08    29   2.27841e+08   2.25673e+08  1031727    0.95%
  62777 43808   2.27194e+08    32   2.27841e+08   2.25673e+08  1031743    0.95%
  62778 43809   2.27194e+08    34   2.27841e+08   2.25673e+08  1031752    0.95%
  62779 43808        cutoff         2.27841e+08   2.25673e+08  1031753    0.95%
  62780 43807        cutoff         2.27841e+08   2.25673e+08  1031765    0.95%
Elapsed time = 43.92 sec. (50869.54 ticks, tree = 30.21 MB, solutions = 19)
  69387 48128   2.25673e+08    24   2.27841e+08   2.25673e+08  1104474    0.95%
  69388 48129   2.25673e+08    21   2.27841e+08   2.25673e+08  1104478    0.95%
  69389 48130   2.25673e+08    25   2.27841e+08   2.25673e+08  1104484    0.95%
  69390 48131   2.25673e+08    24   2.27841e+08   2.25673e+08  1104496    0.95%
  69391 48132   2.25673e+08    24   2.27841e+08   2.25673e+08  1104500    0.95%
  69392 48133   2.25673e+08    25   2.27841e+08   2.25673e+08  1104505    0.95%
  69393 48134   2.25673e+08    27   2.27841e+08   2.25673e+08  1104513    0.95%
  69394 48135   2.25673e+08    21   2.27841e+08   2.25673e+08  1104521    0.95%
  69395 48136   2.25673e+08    27   2.27841e+08   2.25673e+08  1104528    0.95%
  69396 48137   2.25673e+08    24   2.27841e+08   2.25673e+08  1104533    0.95%
Elapsed time = 47.24 sec. (54687.11 ticks, tree = 33.12 MB, solutions = 19)
  75781 52536   2.25673e+08    21   2.27841e+08   2.25673e+08  1182389    0.95%
  75782 52537   2.25673e+08    22   2.27841e+08   2.25673e+08  1182391    0.95%
  75783 52538   2.25673e+08    22   2.27841e+08   2.25673e+08  1182392    0.95%
  75784 52539   2.25673e+08    22   2.27841e+08   2.25673e+08  1182393    0.95%
  75785 52540   2.25673e+08    22   2.27841e+08   2.25673e+08  1182402    0.95%
  75786 52541   2.25673e+08    22   2.27841e+08   2.25673e+08  1182403    0.95%
  75787 52542   2.25673e+08    22   2.27841e+08   2.25673e+08  1182404    0.95%
  75788 52543   2.25673e+08    21   2.27841e+08   2.25673e+08  1182405    0.95%
  75789 52544   2.25673e+08    21   2.27841e+08   2.25673e+08  1182406    0.95%
  75790 52545   2.25673e+08    22   2.27841e+08   2.25673e+08  1182408    0.95%
Elapsed time = 50.81 sec. (58504.27 ticks, tree = 36.05 MB, solutions = 19)
  82142 57233   2.25673e+08    23   2.27841e+08   2.25673e+08  1257229    0.95%
  82143 57234   2.25673e+08    24   2.27841e+08   2.25673e+08  1257247    0.95%
  82144 57235   2.25673e+08    22   2.27841e+08   2.25673e+08  1257250    0.95%
  82145 57236   2.25673e+08    22   2.27841e+08   2.25673e+08  1257262    0.95%
  82146 57237   2.25673e+08    23   2.27841e+08   2.25673e+08  1257273    0.95%
  82147 57238   2.25673e+08    23   2.27841e+08   2.25673e+08  1257277    0.95%
  82148 57239   2.25673e+08    22   2.27841e+08   2.25673e+08  1257289    0.95%
  82149 57240   2.25673e+08    23   2.27841e+08   2.25673e+08  1257290    0.95%
  82150 57241   2.25673e+08    26   2.27841e+08   2.25673e+08  1257295    0.95%
  82151 57242   2.25673e+08    28   2.27841e+08   2.25673e+08  1257298    0.95%
Elapsed time = 54.15 sec. (62322.36 ticks, tree = 39.19 MB, solutions = 19)
  88090 61760   2.27281e+08    30   2.27841e+08   2.25673e+08  1336089    0.95%
  88091 61761   2.25673e+08    23   2.27841e+08   2.25673e+08  1336134    0.95%
  88092 61762   2.25673e+08    23   2.27841e+08   2.25673e+08  1336146    0.95%
  88093 61761        cutoff         2.27841e+08   2.25673e+08  1336181    0.95%
  88094 61760        cutoff         2.27841e+08   2.25673e+08  1336210    0.95%
  88095 61759        cutoff         2.27841e+08   2.25673e+08  1336223    0.95%
  88096 61760   2.25673e+08    25   2.27841e+08   2.25673e+08  1336297    0.95%
  88097 61761   2.25673e+08    25   2.27841e+08   2.25673e+08  1336303    0.95%
  88098 61762   2.25673e+08    26   2.27841e+08   2.25673e+08  1336314    0.95%
  88099 61763   2.25673e+08    25   2.27841e+08   2.25673e+08  1336316    0.95%
Elapsed time = 57.53 sec. (66147.25 ticks, tree = 42.16 MB, solutions = 19)
  94281 65666   2.25673e+08    21   2.27841e+08   2.25673e+08  1423030    0.95%
  94282 65667   2.25673e+08    21   2.27841e+08   2.25673e+08  1423046    0.95%
  94283 65668   2.25673e+08    18   2.27841e+08   2.25673e+08  1423058    0.95%
  94284 65669   2.25673e+08    18   2.27841e+08   2.25673e+08  1423063    0.95%
  94285 65670   2.25673e+08    24   2.27841e+08   2.25673e+08  1423093    0.95%
  94286 65671   2.25673e+08    27   2.27841e+08   2.25673e+08  1423110    0.95%
  94287 65671   2.25673e+08    24   2.27841e+08   2.25673e+08  1423112    0.95%
  94288 65672   2.25673e+08    25   2.27841e+08   2.25673e+08  1423115    0.95%
  94289 65673   2.25673e+08    32   2.27841e+08   2.25673e+08  1423133    0.95%
  94290 65673   2.25683e+08    32   2.27841e+08   2.25673e+08  1423149    0.95%
Elapsed time = 60.94 sec. (69967.88 ticks, tree = 46.69 MB, solutions = 19)
 100862 70249        cutoff         2.27841e+08   2.25673e+08  1500740    0.95%
 100863 70248        cutoff         2.27841e+08   2.25673e+08  1500750    0.95%
 100864 70249   2.25673e+08    16   2.27841e+08   2.25673e+08  1500810    0.95%
 100865 70249   2.26668e+08    22   2.27841e+08   2.25673e+08  1500848    0.95%
 100866 70248        cutoff         2.27841e+08   2.25673e+08  1500852    0.95%
 100867 70247    infeasible         2.27841e+08   2.25673e+08  1500904    0.95%
 100868 70248   2.25673e+08    22   2.27841e+08   2.25673e+08  1500956    0.95%
 100869 70249   2.25673e+08    20   2.27841e+08   2.25673e+08  1501010    0.95%
 100870 70250   2.25888e+08    27   2.27841e+08   2.25673e+08  1501078    0.95%
 100871 70251   2.25888e+08    28   2.27841e+08   2.25673e+08  1501079    0.95%
Elapsed time = 64.33 sec. (73796.98 ticks, tree = 49.71 MB, solutions = 19)
 107228 74121   2.25673e+08    22   2.27841e+08   2.25673e+08  1580744    0.95%
 107229 74122   2.25673e+08    22   2.27841e+08   2.25673e+08  1580748    0.95%
 107230 74123   2.25673e+08    20   2.27841e+08   2.25673e+08  1580750    0.95%
 107231 74124   2.25673e+08    22   2.27841e+08   2.25673e+08  1580752    0.95%
 107232 74125   2.25673e+08    22   2.27841e+08   2.25673e+08  1580759    0.95%
 107233 74126   2.25673e+08    23   2.27841e+08   2.25673e+08  1580768    0.95%
 107234 74127   2.25673e+08    21   2.27841e+08   2.25673e+08  1580772    0.95%
 107235 74128   2.25673e+08    20   2.27841e+08   2.25673e+08  1580785    0.95%
 107236 74129   2.25673e+08    22   2.27841e+08   2.25673e+08  1580803    0.95%
 107237 74130   2.25673e+08    22   2.27841e+08   2.25673e+08  1580818    0.95%
Elapsed time = 67.73 sec. (77615.19 ticks, tree = 52.29 MB, solutions = 19)
 112400 76829   2.25673e+08    21   2.27841e+08   2.25673e+08  1660026    0.95%
 112401 76830   2.25673e+08    21   2.27841e+08   2.25673e+08  1660046    0.95%
 112402 76831   2.26773e+08    26   2.27841e+08   2.25673e+08  1660121    0.95%
 112403 76830        cutoff         2.27841e+08   2.25673e+08  1660124    0.95%
 112404 76829        cutoff         2.27841e+08   2.25673e+08  1660126    0.95%
 112405 76828        cutoff         2.27841e+08   2.25673e+08  1660148    0.95%
 112406 76829   2.25673e+08    20   2.27841e+08   2.25673e+08  1660176    0.95%
 112407 76830   2.25673e+08    19   2.27841e+08   2.25673e+08  1660181    0.95%
 112408 76831   2.25673e+08    19   2.27841e+08   2.25673e+08  1660187    0.95%
 112409 76832   2.26646e+08    28   2.27841e+08   2.25673e+08  1660268    0.95%
Elapsed time = 71.19 sec. (81439.60 ticks, tree = 54.08 MB, solutions = 19)
 117398 80249   2.25673e+08    27   2.27841e+08   2.25673e+08  1743263    0.95%
 117399 80250   2.25677e+08    29   2.27841e+08   2.25673e+08  1743511    0.95%
 117400 80251   2.25677e+08    28   2.27841e+08   2.25673e+08  1743527    0.95%
 117401 80250        cutoff         2.27841e+08   2.25673e+08  1743540    0.95%
 117402 80249        cutoff         2.27841e+08   2.25673e+08  1743642    0.95%
 117403 80250   2.25673e+08    28   2.27841e+08   2.25673e+08  1743716    0.95%
 117404 80251   2.25673e+08    27   2.27841e+08   2.25673e+08  1743724    0.95%
 117405 80252   2.25673e+08    26   2.27841e+08   2.25673e+08  1743725    0.95%
 117406 80253   2.25673e+08    24   2.27841e+08   2.25673e+08  1743728    0.95%
 117407 80254   2.25673e+08    24   2.27841e+08   2.25673e+08  1743740    0.95%
Elapsed time = 74.67 sec. (85270.43 ticks, tree = 56.35 MB, solutions = 19)
 122575 83784        cutoff         2.27841e+08   2.25673e+08  1822575    0.95%
 122576 83785   2.25673e+08    24   2.27841e+08   2.25673e+08  1822591    0.95%
 122577 83786   2.25676e+08    31   2.27841e+08   2.25673e+08  1822665    0.95%
 122578 83786   2.26395e+08    30   2.27841e+08   2.25673e+08  1822680    0.95%
 122579 83786   2.26395e+08    31   2.27841e+08   2.25673e+08  1822691    0.95%
 122580 83787   2.26532e+08    28   2.27841e+08   2.25673e+08  1822697    0.95%
 122581 83786   2.26638e+08    28   2.27841e+08   2.25673e+08  1822703    0.95%
 122582 83785        cutoff         2.27841e+08   2.25673e+08  1822716    0.95%
 122583 83786   2.25673e+08    21   2.27841e+08   2.25673e+08  1822754    0.95%
 122584 83787   2.25673e+08    21   2.27841e+08   2.25673e+08  1822755    0.95%
Elapsed time = 78.08 sec. (89093.56 ticks, tree = 58.67 MB, solutions = 19)
 128085 87179   2.25673e+08    41   2.27841e+08   2.25673e+08  1906526    0.95%
 128086 87180   2.25673e+08    25   2.27841e+08   2.25673e+08  1906606    0.95%
 128087 87181   2.25673e+08    25   2.27841e+08   2.25673e+08  1906632    0.95%
 128088 87182   2.25673e+08    24   2.27841e+08   2.25673e+08  1906651    0.95%
 128089 87183   2.25673e+08    24   2.27841e+08   2.25673e+08  1906652    0.95%
 128090 87183   2.26912e+08    28   2.27841e+08   2.25673e+08  1906666    0.95%
 128091 87182        cutoff         2.27841e+08   2.25673e+08  1906674    0.95%
 128092 87183   2.25673e+08    23   2.27841e+08   2.25673e+08  1906715    0.95%
 128093 87184   2.25673e+08    21   2.27841e+08   2.25673e+08  1906716    0.95%
 128094 87185   2.25673e+08    23   2.27841e+08   2.25673e+08  1906719    0.95%
Elapsed time = 81.58 sec. (92921.76 ticks, tree = 60.93 MB, solutions = 19)
 133631 90689   2.26931e+08    38   2.27841e+08   2.25673e+08  1987336    0.95%
 133632 90690   2.26931e+08    38   2.27841e+08   2.25673e+08  1987337    0.95%
 133633 90689        cutoff         2.27841e+08   2.25673e+08  1987338    0.95%
 133634 90688    infeasible         2.27841e+08   2.25673e+08  1987338    0.95%
 133635 90687        cutoff         2.27841e+08   2.25673e+08  1987395    0.95%
 133636 90687   2.26743e+08    26   2.27841e+08   2.25673e+08  1987528    0.95%
 133637 90686    infeasible         2.27841e+08   2.25673e+08  1987528    0.95%
 133638 90685        cutoff         2.27841e+08   2.25673e+08  1987605    0.95%
 133639 90684        cutoff         2.27841e+08   2.25673e+08  1987707    0.95%
 133640 90683        cutoff         2.27841e+08   2.25673e+08  1987831    0.95%
Elapsed time = 85.33 sec. (96751.58 ticks, tree = 63.31 MB, solutions = 19)
 139143 94327   2.26897e+08    35   2.27841e+08   2.25673e+08  2070663    0.95%
 139144 94328   2.26897e+08    35   2.27841e+08   2.25673e+08  2070664    0.95%
 139145 94329   2.26898e+08    34   2.27841e+08   2.25673e+08  2070665    0.95%
 139146 94330   2.26908e+08    29   2.27841e+08   2.25673e+08  2070668    0.95%
 139147 94331   2.26917e+08    29   2.27841e+08   2.25673e+08  2070669    0.95%
 139148 94332   2.26923e+08    41   2.27841e+08   2.25673e+08  2070678    0.95%
 139149 94333   2.26923e+08    41   2.27841e+08   2.25673e+08  2070680    0.95%
 139150 94334   2.26923e+08    42   2.27841e+08   2.25673e+08  2070683    0.95%
 139151 94335   2.26924e+08    40   2.27841e+08   2.25673e+08  2070684    0.95%
 139152 94336   2.26925e+08    29   2.27841e+08   2.25673e+08  2070685    0.95%
Elapsed time = 88.78 sec. (100569.52 ticks, tree = 65.75 MB, solutions = 19)
 142701 96947   2.25991e+08    27   2.27841e+08   2.25673e+08  2122535    0.95%
 142702 96948   2.25991e+08    27   2.27841e+08   2.25673e+08  2122542    0.95%
 142703 96949   2.25991e+08    27   2.27841e+08   2.25673e+08  2122550    0.95%
 142704 96950   2.25991e+08    27   2.27841e+08   2.25673e+08  2122559    0.95%
 142705 96951   2.25992e+08    28   2.27841e+08   2.25673e+08  2122570    0.95%
 142706 96952   2.25992e+08    28   2.27841e+08   2.25673e+08  2122571    0.95%
 142707 96953   2.26004e+08    28   2.27841e+08   2.25673e+08  2122573    0.95%
 142708 96954   2.26033e+08    44   2.27841e+08   2.25673e+08  2122582    0.95%
 142709 96955   2.26036e+08    45   2.27841e+08   2.25673e+08  2122584    0.95%
 142710 96956   2.26038e+08    43   2.27841e+08   2.25673e+08  2122585    0.95%
Elapsed time = 92.11 sec. (104474.04 ticks, tree = 67.50 MB, solutions = 19)
 146721 99298   2.25673e+08    24   2.27841e+08   2.25673e+08  2187687    0.95%
 146722 99299   2.25673e+08    30   2.27841e+08   2.25673e+08  2187706    0.95%
 146723 99300   2.25673e+08    28   2.27841e+08   2.25673e+08  2187710    0.95%
 146724 99301   2.25673e+08    28   2.27841e+08   2.25673e+08  2187723    0.95%
 146725 99302   2.25673e+08    27   2.27841e+08   2.25673e+08  2187731    0.95%
 146726 99303   2.25673e+08    25   2.27841e+08   2.25673e+08  2187769    0.95%
 146727 99304   2.25673e+08    22   2.27841e+08   2.25673e+08  2187779    0.95%
 146728 99305   2.25673e+08    30   2.27841e+08   2.25673e+08  2187790    0.95%
 146729 99306   2.25673e+08    30   2.27841e+08   2.25673e+08  2187821    0.95%
 146730 99307   2.25673e+08    30   2.27841e+08   2.25673e+08  2187835    0.95%
Elapsed time = 95.46 sec. (108293.73 ticks, tree = 69.06 MB, solutions = 19)
 151983 102289        cutoff         2.27841e+08   2.25673e+08  2267148    0.95%
 151984 102290   2.25825e+08    29   2.27841e+08   2.25673e+08  2267161    0.95%
 151985 102291   2.25825e+08    27   2.27841e+08   2.25673e+08  2267164    0.95%
 151986 102292   2.25825e+08    26   2.27841e+08   2.25673e+08  2267177    0.95%
 151987 102292   2.25825e+08    26   2.27841e+08   2.25673e+08  2267178    0.95%
 151988 102292   2.25825e+08    26   2.27841e+08   2.25673e+08  2267179    0.95%
 151989 102292   2.25825e+08    26   2.27841e+08   2.25673e+08  2267180    0.95%
 151990 102292   2.25825e+08    27   2.27841e+08   2.25673e+08  2267181    0.95%
 151991 102293   2.25825e+08    27   2.27841e+08   2.25673e+08  2267183    0.95%
 151992 102294   2.25825e+08    27   2.27841e+08   2.25673e+08  2267186    0.95%
Elapsed time = 98.88 sec. (112110.44 ticks, tree = 71.07 MB, solutions = 19)

GUB cover cuts applied:  1
Cover cuts applied:  458
Mixed integer rounding cuts applied:  11
Gomory fractional cuts applied:  8

Root node processing (before b&c):
  Real time             =    0.05 sec. (54.72 ticks)
Sequential b&c:
  Real time             =   99.95 sec. (113357.09 ticks)
                          ------------
Total (root+branch&cut) =  100.00 sec. (113411.81 ticks)

Solution pool: 19 solutions saved.

MIP - Time limit exceeded, integer feasible:  Objective =  2.2784057600e+08
Current MIP best bound =  2.2567326400e+08 (gap = 2.16731e+06, 0.95%)
Solution time =  100.00 sec.  Iterations = 2292587  Nodes = 153583 (103163)
Deterministic time = 113411.81 ticks  (1134.12 ticks/sec)


Incumbent solution written to file '/tmp/tmpWQyGQ7.cplex.sol'.
